10J3M/DAT/10J3MUNX-16.dat
10 3
29.303 5.4132
46.7755 6.8393
27.7621 5.269
30.8314 5.5526
0.0043 0.0656
0.8533 0.9237
9.7384 3.1206
33.3671 5.7764
35.1309 5.9271
35.0663 5.9217
44.8092