10J3M/SOL/10J3MUNX-16.sol
solution status: optimal solution found
objective value:                     81.2650333333333
x#1#1                                               1 	(obj:0)
x#2#1                                               1 	(obj:0)
x#3#2                                               1 	(obj:0)
x#4#2                               0.126534162441333 	(obj:0)
x#4#3                               0.873465837558667 	(obj:0)
x#5#1                                               1 	(obj:0)
x#6#3                                               1 	(obj:0)
x#7#2                                               1 	(obj:0)
x#8#1                               0.883711637305316 	(obj:0)
x#8#3                               0.116288362694684 	(obj:0)
x#9#2                                               1 	(obj:0)
x#10#1                                              1 	(obj:0)
z                                    81.2650333333333 	(obj:1)
